\ No. vars=300 No. cons=100 Density= 0.05 Range of costs= 1 to 10
\ Name of file is pk31w.lp
Maximize
obj:    6 x1 +  8 x2 +  3 x3 +  3 x4 + 10 x5 +  5 x6 +  2 x7 +  8 x8 +  4 x9 +  4 x10
 +  2 x11 +  9 x12 +  4 x13 +  4 x14 +  2 x15 +  6 x16 +  7 x17 +  2 x18 +  1 x19 +  3 x20
 +  8 x21 +  8 x22 +  6 x23 +  8 x24 +  7 x25 +  3 x26 +  5 x27 +  2 x28 +  3 x29 +  2 x30
 +  8 x31 +  2 x32 +  9 x33 +  3 x34 +  5 x35 +  7 x36 +  7 x37 +  7 x38 +  8 x39 +  4 x40
 + 10 x41 +  8 x42 +  3 x43 +  3 x44 +  6 x45 +  4 x46 +  7 x47 +  8 x48 +  2 x49 +  7 x50
 +  2 x51 +  5 x52 +  2 x53 +  9 x54 +  5 x55 +  3 x56 +  2 x57 +  2 x58 +  6 x59 +  6 x60
 +  1 x61 +  8 x62 +  7 x63 +  8 x64 +  9 x65 +  7 x66 +  2 x67 +  9 x68 +  2 x69 +  2 x70
 +  5 x71 + 10 x72 +  6 x73 +  7 x74 +  4 x75 +  6 x76 +  2 x77 +  4 x78 +  6 x79 +  5 x80
 +  8 x81 +  9 x82 +  8 x83 + 10 x84 +  5 x85 +  6 x86 +  5 x87 +  5 x88 +  7 x89 +  4 x90
 +  5 x91 +  9 x92 +  2 x93 +  4 x94 +  3 x95 +  7 x96 +  5 x97 +  6 x98 +  2 x99 +  6 x100
 +  1 x101 +  2 x102 +  8 x103 +  6 x104 +  2 x105 +  6 x106 +  6 x107 +  1 x108 +  9 x109 +  1 x110
 +  3 x111 +  7 x112 +  6 x113 +  2 x114 +  5 x115 +  8 x116 +  5 x117 +  6 x118 +  6 x119 +  1 x120
 +  9 x121 +  6 x122 +  8 x123 +  9 x124 +  2 x125 +  6 x126 +  6 x127 +  6 x128 +  3 x129 +  2 x130
 + 10 x131 +  6 x132 +  3 x133 +  5 x134 +  8 x135 +  8 x136 +  4 x137 +  8 x138 +  3 x139 +  2 x140
 +  2 x141 +  2 x142 + 10 x143 +  2 x144 +  6 x145 +  5 x146 +  5 x147 +  2 x148 + 10 x149 +  9 x150
 +  6 x151 +  6 x152 +  5 x153 +  8 x154 +  5 x155 +  7 x156 +  2 x157 +  5 x158 +  8 x159 + 10 x160
 +  8 x161 +  8 x162 +  9 x163 +  6 x164 + 10 x165 +  4 x166 +  7 x167 +  3 x168 +  4 x169 +  8 x170
 +  4 x171 +  2 x172 +  6 x173 + 10 x174 +  8 x175 +  2 x176 +  5 x177 +  6 x178 +  9 x179 + 10 x180
 +  4 x181 +  3 x182 +  7 x183 +  3 x184 +  8 x185 +  7 x186 +  5 x187 +  4 x188 +  6 x189 +  7 x190
 +  9 x191 +  7 x192 +  4 x193 +  5 x194 +  2 x195 +  3 x196 +  6 x197 +  7 x198 +  7 x199 +  2 x200
 +  9 x201 +  2 x202 +  5 x203 +  9 x204 +  2 x205 +  9 x206 +  7 x207 +  7 x208 +  2 x209 +  2 x210
 +  6 x211 +  4 x212 +  6 x213 +  2 x214 +  8 x215 +  2 x216 +  6 x217 +  3 x218 +  4 x219 +  5 x220
 +  5 x221 +  2 x222 +  7 x223 +  3 x224 +  3 x225 +  2 x226 +  5 x227 +  1 x228 +  6 x229 +  3 x230
 +  3 x231 +  5 x232 +  4 x233 +  3 x234 +  5 x235 +  3 x236 +  6 x237 +  2 x238 +  7 x239 +  8 x240
 +  7 x241 +  5 x242 + 10 x243 + 10 x244 +  5 x245 +  5 x246 +  8 x247 +  9 x248 +  6 x249 +  1 x250
 +  3 x251 +  5 x252 +  3 x253 +  8 x254 +  7 x255 +  6 x256 +  3 x257 +  1 x258 +  4 x259 +  5 x260
 +  6 x261 +  8 x262 +  8 x263 +  3 x264 +  7 x265 +  4 x266 +  9 x267 +  2 x268 +  6 x269 +  6 x270
 +  5 x271 +  7 x272 +  7 x273 +  3 x274 +  8 x275 +  8 x276 +  5 x277 +  8 x278 +  6 x279 +  6 x280
 +  6 x281 + 10 x282 + 10 x283 +  2 x284 +  6 x285 +  4 x286 +  9 x287 +  4 x288 +  3 x289 +  7 x290
 +  4 x291 +  8 x292 +  7 x293 +  5 x294 + 10 x295 + 10 x296 +  3 x297 + 10 x298 +  8 x299 +  8 x300
Subject To
c1:   x42 + x44 + x48 + x51 + x74 + x89 + x112 + x122 + x168 + x187
 + x231 + x274 + x288  <= 1
c2:   x31 + x33 + x39 + x71 + x91 + x127 + x128 + x150 + x153 + x166
 + x180 + x199 + x217 + x250 + x251 + x255 + x285  <= 1
c3:   x10 + x26 + x72 + x98 + x111 + x128 + x146 + x152 + x196 + x241
 + x259 + x265  <= 1
c4:   x179 + x183 + x186 + x197 + x198 + x207 + x241 + x269 + x290 + x292  <= 1
c5:   x3 + x78 + x83 + x91 + x105 + x119 + x143 + x168 + x172 + x211
 + x218 + x222 + x263 + x265 + x297  <= 1
c6:   x14 + x31 + x37 + x46 + x47 + x49 + x63 + x102 + x121 + x181
 + x224 + x242 + x252 + x273 + x284  <= 1
c7:   x38 + x102 + x130 + x159 + x190 + x214 + x221 + x256 + x258 + x274  <= 1
c8:   x21 + x36 + x46 + x51 + x114 + x146 + x164 + x187 + x223 + x234  <= 1
c9:   x60 + x93 + x119 + x160 + x162 + x258 + x283  <= 1
c10:   x6 + x23 + x69 + x94 + x112 + x115 + x119 + x124 + x146 + x166
 + x195 + x222 + x223 + x241 + x264 + x284 + x296  <= 1
c11:   x26 + x29 + x34 + x45 + x51 + x58 + x80 + x88 + x161 + x177
 + x202 + x243 + x263 + x275  <= 1
c12:   x8 + x53 + x59 + x60 + x69 + x83 + x93 + x114 + x122 + x126
 + x151 + x163 + x173 + x184 + x193 + x197 + x205 + x257 + x259 + x260
 + x281 + x292  <= 1
c13:   x7 + x27 + x57 + x59 + x69 + x86 + x104 + x116 + x169 + x177
 + x198 + x206 + x220 + x222 + x223 + x232 + x267  <= 1
c14:   x4 + x8 + x13 + x37 + x58 + x64 + x73 + x85 + x112 + x118
 + x140 + x151 + x204 + x223 + x225 + x229 + x245 + x271 + x300  <= 1
c15:   x16 + x19 + x20 + x45 + x58 + x105 + x115 + x158 + x188 + x191
 + x208 + x225  <= 1
c16:   x22 + x25 + x37 + x53 + x60 + x72 + x85 + x106 + x165 + x216
 + x239 + x249 + x265 + x275  <= 1
c17:   x8 + x55 + x169 + x177 + x185 + x204 + x213 + x215 + x219 + x221
 + x225 + x284  <= 1
c18:   x17 + x31 + x52 + x64 + x72 + x89 + x98 + x103 + x108 + x125
 + x146 + x202 + x221 + x263 + x267 + x283 + x299  <= 1
c19:   x17 + x25 + x27 + x38 + x62 + x76 + x89 + x90 + x91 + x129
 + x144 + x146 + x162 + x190 + x213 + x218 + x256 + x261 + x268 + x271
 + x287  <= 1
c20:   x27 + x60 + x66 + x99 + x101 + x113 + x163 + x165 + x170 + x173
 + x188 + x195 + x200 + x241 + x247 + x259 + x292  <= 1
c21:   x35 + x50 + x58 + x111 + x122 + x207 + x214 + x248 + x249 + x263
 + x300  <= 1
c22:   x10 + x11 + x20 + x63 + x86 + x115 + x137 + x176 + x179 + x214
 + x226 + x231 + x248 + x255 + x257  <= 1
c23:   x37 + x53 + x57 + x90 + x91 + x118 + x122 + x129 + x132 + x139
 + x149 + x186 + x188 + x202 + x252 + x276  <= 1
c24:   x39 + x73 + x92 + x97 + x104 + x114 + x158 + x248 + x265 + x281  <= 1
c25:   x10 + x35 + x46 + x68 + x92 + x105 + x125 + x158 + x190 + x196
 + x207 + x231 + x246 + x260 + x262 + x263 + x266 + x288 + x293 + x299  <= 1
c26:   x20 + x31 + x34 + x100 + x126 + x136 + x145 + x166 + x174 + x204
 + x224 + x235 + x236 + x246 + x272 + x291  <= 1
c27:   x36 + x92 + x113 + x132 + x155 + x158 + x161  <= 1
c28:   x23 + x40 + x69 + x78 + x91 + x111 + x140 + x144 + x155 + x175
 + x178 + x197 + x203 + x205 + x212 + x218 + x240 + x245 + x246 + x247
 + x258 + x293  <= 1
c29:   x79 + x88 + x117 + x126 + x146 + x157 + x163 + x171 + x179 + x197
 + x221 + x269  <= 1
c30:   x45 + x84 + x106 + x121 + x130 + x181 + x198 + x203 + x230 + x239
 + x244 + x249 + x286 + x299  <= 1
c31:   x5 + x28 + x36 + x50 + x60 + x79 + x125 + x131 + x145 + x152
 + x174 + x258 + x280 + x287 + x291 + x300  <= 1
c32:   x25 + x35 + x47 + x48 + x56 + x70 + x97 + x99 + x109 + x139
 + x140 + x149 + x167 + x184 + x185 + x209 + x268 + x273 + x289 + x290  <= 1
c33:   x5 + x20 + x25 + x52 + x59 + x78 + x137 + x141 + x173 + x185
 + x201 + x208 + x221 + x222 + x265 + x293  <= 1
c34:   x15 + x35 + x72 + x76 + x90 + x98 + x120 + x122 + x172 + x195
 + x204 + x209 + x236 + x244 + x256  <= 1
c35:   x10 + x24 + x27 + x43 + x50 + x55 + x95 + x121 + x126 + x128
 + x141 + x183 + x186 + x203 + x235 + x265 + x269 + x273 + x281 + x290  <= 1
c36:   x2 + x9 + x12 + x50 + x71 + x90 + x200 + x233 + x236 + x239
 + x265  <= 1
c37:   x18 + x20 + x30 + x65 + x77 + x89 + x91 + x96 + x99 + x135
 + x148 + x167 + x185 + x245 + x250 + x269 + x274 + x285 + x298  <= 1
c38:   x15 + x53 + x69 + x70 + x79 + x97 + x101 + x102 + x119 + x136
 + x139 + x163 + x196 + x204 + x213 + x226 + x234 + x240 + x244 + x259
 + x280 + x296  <= 1
c39:   x3 + x5 + x20 + x26 + x53 + x76 + x85 + x97 + x113 + x156
 + x191 + x201 + x205 + x260 + x297  <= 1
c40:   x21 + x72 + x129 + x145 + x148 + x168 + x190 + x204 + x220 + x231
 + x244 + x249 + x281  <= 1
c41:   x28 + x55 + x57 + x70 + x89 + x143 + x156 + x247 + x250 + x252
 + x253 + x286  <= 1
c42:   x41 + x58 + x85 + x158 + x159 + x188 + x192 + x216 + x252 + x271
 + x274 + x285  <= 1
c43:   x14 + x16 + x47 + x56 + x112 + x168 + x179 + x196 + x220 + x235
 + x240 + x249 + x273 + x288 + x293  <= 1
c44:   x2 + x47 + x51 + x115 + x121 + x122 + x147 + x168 + x173 + x196
 + x236 + x261 + x278 + x290  <= 1
c45:   x14 + x32 + x39 + x45 + x133 + x152 + x154 + x179 + x201 + x210
 + x243 + x261 + x293 + x296  <= 1
c46:   x27 + x48 + x78 + x85 + x135 + x184 + x227 + x243 + x247 + x261
 + x265 + x300  <= 1
c47:   x62 + x100 + x128 + x157 + x162 + x227 + x259 + x294  <= 1
c48:   x41 + x54 + x58 + x83 + x85 + x108 + x129 + x140 + x166 + x177
 + x184 + x186 + x203 + x234 + x235 + x274 + x299  <= 1
c49:   x9 + x18 + x42 + x83 + x85 + x119 + x138 + x167 + x198 + x212
 + x228 + x246 + x263 + x265  <= 1
c50:   x22 + x67 + x78 + x89 + x100 + x107 + x147 + x168 + x177 + x204
 + x234 + x256 + x264  <= 1
c51:   x35 + x51 + x85 + x89 + x109 + x110 + x131 + x146 + x151 + x163
 + x175 + x189 + x204 + x208 + x226 + x272 + x297  <= 1
c52:   x2 + x24 + x42 + x83 + x92 + x94 + x100 + x123 + x125 + x143
 + x152 + x160 + x161 + x167 + x176 + x186 + x194 + x197 + x199 + x214
 + x227 + x232 + x263 + x276  <= 1
c53:   x35 + x78 + x80 + x85 + x102 + x113 + x173 + x193 + x211 + x224
 + x272 + x293  <= 1
c54:   x3 + x40 + x45 + x93 + x105 + x123 + x145 + x166 + x249 + x254
 + x261 + x266 + x295  <= 1
c55:   x6 + x18 + x20 + x38 + x50 + x51 + x145 + x187 + x190 + x204
 + x213 + x222 + x262 + x271 + x284 + x289 + x291  <= 1
c56:   x4 + x17 + x55 + x119 + x151 + x157 + x171 + x184 + x199 + x211
 + x235 + x261  <= 1
c57:   x69 + x74 + x85 + x112 + x153 + x156 + x165 + x168 + x174 + x177
 + x223 + x230 + x246 + x250 + x251 + x252 + x263 + x269 + x300  <= 1
c58:   x28 + x45 + x48 + x61 + x89 + x94 + x142 + x155 + x171 + x179
 + x185 + x203 + x236 + x252 + x268  <= 1
c59:   x27 + x43 + x67 + x83 + x88 + x105 + x107 + x117 + x157 + x162
 + x176 + x180 + x190 + x220 + x243 + x245 + x258  <= 1
c60:   x5 + x20 + x37 + x66 + x82 + x85 + x98 + x112 + x189 + x198
 + x212 + x222 + x224 + x225 + x227 + x228 + x242 + x265 + x268 + x273  <= 1
c61:   x14 + x22 + x25 + x30 + x43 + x112 + x120 + x154 + x160 + x193
 + x209 + x214 + x222 + x224 + x234  <= 1
c62:   x48 + x52 + x146 + x168 + x172 + x185 + x186 + x198 + x242 + x258
 + x259 + x273 + x275  <= 1
c63:   x53 + x91 + x112 + x131 + x167 + x176 + x180 + x209 + x217 + x243
 + x268 + x299  <= 1
c64:   x7 + x18 + x23 + x49 + x93 + x115 + x119 + x126 + x145 + x163
 + x172 + x187 + x190 + x220 + x231 + x239 + x261  <= 1
c65:   x25 + x35 + x113 + x144 + x147 + x175 + x203 + x226 + x233 + x295  <= 1
c66:   x9 + x10 + x42 + x51 + x232 + x262 + x263 + x264  <= 1
c67:   x9 + x61 + x73 + x145 + x147 + x171 + x208 + x214 + x237 + x245
 + x273 + x282  <= 1
c68:   x30 + x80 + x83 + x92 + x96 + x132 + x183 + x243 + x251 + x257
 + x259 + x279 + x290  <= 1
c69:   x4 + x46 + x47 + x154 + x155 + x162 + x164 + x166 + x180 + x209
 + x225 + x267 + x269  <= 1
c70:   x25 + x39 + x42 + x44 + x56 + x70 + x79 + x93 + x139 + x186
 + x189  <= 1
c71:   x10 + x15 + x82 + x104 + x105 + x173 + x180 + x193 + x205 + x211
 + x213 + x250 + x258 + x264 + x271 + x280 + x281  <= 1
c72:   x50 + x57 + x83 + x93 + x136 + x142 + x143 + x145 + x163 + x190
 + x197 + x261 + x285 + x294  <= 1
c73:   x4 + x31 + x69 + x78 + x93 + x98 + x101 + x167 + x174 + x185
 + x207 + x212 + x218 + x226 + x228 + x275 + x289 + x290  <= 1
c74:   x4 + x17 + x25 + x34 + x50 + x62 + x63 + x72 + x86 + x90
 + x103 + x121 + x155 + x199 + x254 + x257 + x276 + x284 + x291  <= 1
c75:   x7 + x16 + x30 + x37 + x59 + x101 + x166 + x205 + x223 + x240
 + x243 + x272  <= 1
c76:   x37 + x53 + x62 + x72 + x188 + x206 + x268 + x291 + x296  <= 1
c77:   x14 + x52 + x66 + x79 + x97 + x132 + x137 + x183 + x215 + x219
 + x241 + x265 + x277 + x283  <= 1
c78:   x59 + x80 + x86 + x124 + x135 + x139 + x156 + x161 + x188 + x236
 + x280 + x285 + x294 + x295  <= 1
c79:   x52 + x62 + x81 + x82 + x120 + x130 + x165 + x189 + x204 + x227
 + x243 + x254 + x257 + x264  <= 1
c80:   x8 + x56 + x94 + x106 + x111 + x135 + x171 + x180 + x184 + x191
 + x193 + x195 + x196 + x217 + x219 + x230 + x257 + x279 + x284 + x290
 + x292 + x300  <= 1
c81:   x13 + x85 + x95 + x97 + x135 + x145 + x162 + x204 + x207 + x210
 + x215 + x216 + x227 + x268 + x281 + x285  <= 1
c82:   x30 + x32 + x38 + x41 + x55 + x60 + x75 + x87 + x102 + x132
 + x140 + x149 + x165 + x166 + x191 + x240 + x246 + x253 + x259 + x264
 + x267 + x268 + x280 + x292  <= 1
c83:   x4 + x16 + x36 + x41 + x42 + x54 + x57 + x71 + x74 + x75
 + x135 + x156 + x160 + x168 + x169 + x186 + x204 + x223 + x241 + x254  <= 1
c84:   x22 + x60 + x101 + x106 + x109 + x111 + x139 + x141 + x191 + x204
 + x255  <= 1
c85:   x19 + x33 + x59 + x123 + x124 + x151 + x155 + x160 + x167 + x186
 + x201 + x206 + x210 + x232 + x234 + x245 + x257 + x298  <= 1
c86:   x60 + x68 + x192 + x217 + x221 + x222 + x231 + x235 + x261  <= 1
c87:   x5 + x20 + x52 + x57 + x64 + x75 + x136 + x139 + x147 + x167
 + x178 + x184 + x211 + x244 + x253 + x265  <= 1
c88:   x1 + x10 + x24 + x30 + x46 + x54 + x125 + x160 + x162 + x182
 + x192 + x210 + x220 + x228 + x238 + x251 + x270 + x283  <= 1
c89:   x38 + x84 + x90 + x96 + x104 + x107 + x155 + x198 + x206 + x210
 + x224 + x226 + x229 + x261 + x270 + x282 + x293  <= 1
c90:   x8 + x40 + x79 + x95 + x141 + x161 + x196 + x248 + x253 + x279  <= 1
c91:   x21 + x42 + x55 + x62 + x68 + x81 + x96 + x111 + x182 + x184
 + x191 + x203 + x206 + x220 + x252  <= 1
c92:   x22 + x41 + x50 + x54 + x90 + x99 + x109 + x125 + x168 + x201
 + x212 + x219 + x231 + x250 + x277 + x282  <= 1
c93:   x14 + x24 + x42 + x48 + x59 + x68 + x96 + x138 + x178 + x192
 + x267 + x281 + x291  <= 1
c94:   x4 + x47 + x66 + x68 + x70 + x72 + x80 + x113 + x135 + x141
 + x157 + x164 + x186 + x206 + x219 + x234 + x241 + x257 + x263 + x290  <= 1
c95:   x5 + x36 + x37 + x74 + x79 + x96 + x121 + x132 + x139 + x146
 + x152 + x191 + x219 + x264 + x271 + x294  <= 1
c96:   x17 + x56 + x76 + x102 + x155 + x161 + x181 + x210 + x220 + x262
 + x271 + x300  <= 1
c97:   x32 + x42 + x47 + x55 + x66 + x71 + x79 + x89 + x99 + x103
 + x121 + x175 + x199 + x218 + x224 + x235 + x262 + x280 + x289 + x291  <= 1
c98:   x67 + x69 + x107 + x126 + x127 + x155 + x165 + x205 + x231 + x254
 + x281  <= 1
c99:   x6 + x26 + x59 + x102 + x112 + x141 + x143 + x152 + x165 + x170
 + x172 + x179 + x189 + x277 + x290  <= 1
c100:   x35 + x56 + x58 + x129 + x182 + x223 + x226 + x244 + x256 + x300  <= 1
INTEGERS
 x1
 x2
 x3
 x4
 x5
 x6
 x7
 x8
 x9
 x10
 x11
 x12
 x13
 x14
 x15
 x16
 x17
 x18
 x19
 x20
 x21
 x22
 x23
 x24
 x25
 x26
 x27
 x28
 x29
 x30
 x31
 x32
 x33
 x34
 x35
 x36
 x37
 x38
 x39
 x40
 x41
 x42
 x43
 x44
 x45
 x46
 x47
 x48
 x49
 x50
 x51
 x52
 x53
 x54
 x55
 x56
 x57
 x58
 x59
 x60
 x61
 x62
 x63
 x64
 x65
 x66
 x67
 x68
 x69
 x70
 x71
 x72
 x73
 x74
 x75
 x76
 x77
 x78
 x79
 x80
 x81
 x82
 x83
 x84
 x85
 x86
 x87
 x88
 x89
 x90
 x91
 x92
 x93
 x94
 x95
 x96
 x97
 x98
 x99
 x100
 x101
 x102
 x103
 x104
 x105
 x106
 x107
 x108
 x109
 x110
 x111
 x112
 x113
 x114
 x115
 x116
 x117
 x118
 x119
 x120
 x121
 x122
 x123
 x124
 x125
 x126
 x127
 x128
 x129
 x130
 x131
 x132
 x133
 x134
 x135
 x136
 x137
 x138
 x139
 x140
 x141
 x142
 x143
 x144
 x145
 x146
 x147
 x148
 x149
 x150
 x151
 x152
 x153
 x154
 x155
 x156
 x157
 x158
 x159
 x160
 x161
 x162
 x163
 x164
 x165
 x166
 x167
 x168
 x169
 x170
 x171
 x172
 x173
 x174
 x175
 x176
 x177
 x178
 x179
 x180
 x181
 x182
 x183
 x184
 x185
 x186
 x187
 x188
 x189
 x190
 x191
 x192
 x193
 x194
 x195
 x196
 x197
 x198
 x199
 x200
 x201
 x202
 x203
 x204
 x205
 x206
 x207
 x208
 x209
 x210
 x211
 x212
 x213
 x214
 x215
 x216
 x217
 x218
 x219
 x220
 x221
 x222
 x223
 x224
 x225
 x226
 x227
 x228
 x229
 x230
 x231
 x232
 x233
 x234
 x235
 x236
 x237
 x238
 x239
 x240
 x241
 x242
 x243
 x244
 x245
 x246
 x247
 x248
 x249
 x250
 x251
 x252
 x253
 x254
 x255
 x256
 x257
 x258
 x259
 x260
 x261
 x262
 x263
 x264
 x265
 x266
 x267
 x268
 x269
 x270
 x271
 x272
 x273
 x274
 x275
 x276
 x277
 x278
 x279
 x280
 x281
 x282
 x283
 x284
 x285
 x286
 x287
 x288
 x289
 x290
 x291
 x292
 x293
 x294
 x295
 x296
 x297
 x298
 x299
 x300
End
